'hugeuniform105'
150 75 75
148
146
146
142
141
134
133
133
131
131
129
129
127
126
125
123
116
113
110
109
107
106
103
99
98
98
94
92
87
85
83
79
78
78
72
71
70
67
61
58
55
49
49
46
44
43
42
41
39
39
36
34
33
28
26
25
25
22
19
17
17
15
14
14
12
10
9
9
7
6
4
4
3
2
1
